n= 2
m= 16
1700
1900
550	25	5
515	35	5
460	10	10
435	105	5
385	24	12
370	100	10
330	40	10
290	20	10
250	90	10
220	20	10
180	40	10
155	10	10
120	60	10
115	420	10
114	50	10
60	24	12
